% Generado automaticamente desde C:/Users/andres/Desktop/SEPTIMO SEMESTRE/ADAII/proyecto_final/Proyecto-Optimizacion-ADA2/BateriaPruebas_2025_2_P2-txt/Prueba6.txt

n = 20;
m = 3;
ct = 25.0;
maxMovs = 10.0;
v = [0.082, 0.456, 0.927];
p = [1, 10, 9];
s = [| 0, 0, 1 | 4, 3, 3 | 3, 3, 3 |];
